
 102    0


   0  45 2 3 4 5 6 7 8 9 10 11 12 13 14 15 16 17 18 19 20 21 22 24 25 26 27 28 29 30 31 32 33 34 35 36 37 38 39 41 42 43 47 48 49 54 101 
   7  15 93 87 81 77 75 74 67 65 62 59 58 56 51 45 23 
  10  22 94 87 84 83 82 80 75 74 73 70 69 68 67 66 64 62 61 60 59 58 50 44 
   7  18 99 95 86 85 83 81 76 74 73 72 71 64 63 59 56 55 52 40 
   7  21 97 90 85 83 80 76 75 74 73 71 69 68 67 65 64 62 61 60 59 58 55 
   8  20 96 94 90 89 86 84 81 79 77 76 75 69 68 67 65 63 62 59 58 50 
   5  18 93 87 84 83 78 74 73 72 67 64 63 62 61 60 57 56 52 50 
   1  15 88 84 83 77 76 75 74 73 68 66 63 60 59 58 44 
   4  15 96 85 83 82 78 73 72 70 67 62 61 57 56 52 50 
   8  15 91 89 86 82 77 76 72 70 68 64 63 62 58 55 51 
  10  14 89 84 80 78 72 70 64 62 59 58 56 55 53 46 
   9  13 93 92 89 88 86 84 81 71 68 60 59 51 44 
   4  15 91 85 82 79 77 71 70 69 67 64 63 62 59 58 57 
   4  14 98 91 83 81 80 76 74 73 66 63 59 58 57 56 
   6  14 94 87 82 69 68 67 66 63 62 61 58 57 56 55 
  10  13 89 84 80 78 75 73 68 67 62 60 59 58 55 
   5  11 92 78 76 71 69 66 64 63 58 56 51 
   3  11 90 81 78 77 74 67 66 65 57 55 51 
   7  10 91 79 77 75 72 66 65 60 57 50 
   6  10 100 79 77 70 66 65 64 60 56 55 
   7  10 72 67 66 65 64 61 58 57 56 55 
   9  10 84 81 72 69 65 64 63 61 59 56 
   7   9 90 88 85 71 70 68 66 60 55 
   5   9 83 80 74 64 63 62 60 57 56 
   4   9 95 78 73 69 68 67 66 59 58 
   7   8 86 78 74 69 66 65 64 59 
   3   8 86 81 72 71 70 64 60 56 
   2   8 87 79 73 71 67 63 62 59 
   8   7 78 75 63 60 58 56 50 
  10   7 82 70 66 65 62 60 55 
   7   7 82 72 70 68 66 62 57 
   9   7 79 77 71 61 59 58 56 
   5   7 87 73 68 65 62 61 55 
   8   6 82 80 71 62 59 50 
   5   6 92 66 64 58 57 50 
   7   6 85 71 67 62 60 57 
   1   6 65 63 61 59 58 56 
   1   5 80 72 63 59 57 
   6   5 88 76 63 58 56 
   7   4 69 61 60 57 
   3   4 69 68 57 55 
   6   4 76 75 65 64 
   8   3 61 60 57 
   5   2 57 56 
  10   2 69 64 
   9   2 79 63 
   1   2 70 65 
   8   2 74 56 
   2   2 88 60 
   2   1 55 
   3   1 61 
   5   1 65 
   3   1 79 
  10   1 75 
   6   1 102
   1   1 102
   6   1 102
   5   1 102
   7   1 102
   1   1 102
   3   1 102
   3   1 102
   6   1 102
   5   1 102
   3   1 102
   6   1 102
   6   1 102
   3   1 102
   4   1 102
   3   1 102
   3   1 102
   9   1 102
   8   1 102
   8   1 102
   8   1 102
   4   1 102
   7   1 102
   1   1 102
   1   1 102
   6   1 102
  10   1 102
   7   1 102
   3   1 102
   5   1 102
   3   1 102
   4   1 102
   2   1 102
   1   1 102
   5   1 102
   9   1 102
   4   1 102
   8   1 102
  10   1 102
   4   1 102
   8   1 102
   4   1 102
   6   1 102
   9   1 102
   9   1 102
   7   1 102
   6   1 102
   0   0 
